
(set-logic ALL) 

(declare-datatype MyList ((Nil) (Cons (head Real) (tail MyList)) )) 
(declare-fun l0 () MyList) 
(declare-fun l1 () MyList) 
(declare-fun l2 () MyList) 
(declare-fun l3 () MyList) 
(declare-fun i0 () Real) 
(declare-fun i1 () Real) 
(assert (is-Cons l3) )
(assert (is-Nil Nil) )
(assert (= l1 Nil) )
(assert (is-Cons Nil) )
(assert (not (= l3 Nil)) )
(assert (and (= l3 Nil) (= l0 l2) (= l0 l3) (= l2 Nil)) )
(assert (is-Nil Nil) )
(assert (= l3 Nil) )
(check-sat)
